networks/zoo_96_1980/zoo_96_1980.txt
Number of groups: 48
Flow 5: {5 6} {6 57} 
Flow 11: {18 12} {12 63} 
Flow 12: {22 17} {17 13} {13 64} 
Flow 19: {1 41} {41 2} {2 20} {20 71} 
Flow 22: {25 26} {26 23} {23 74} 
Flow 23: {23 24} {24 75} 
Flow 121: {21 34} {34 85} 
Flow 168: {4 3} {3 37} {37 88} 
Flow 226: {20 7} {7 58} 
Flow 257: {6 5} {5 8} {8 38} {38 89} 
Flow 264: {8 2} {2 41} {41 27} {27 45} {45 96} 
Flow 269: {2 8} {8 5} {5 56} 
Flow 304: {43 41} {41 92} 
Flow 307: {7 42} {42 36} {36 45} {45 44} {44 95} 
Flow 414: {10 19} {19 70} 
Flow 417: {35 21} {21 22} {22 73} 
Flow 425: {33 32} {32 30} {30 81} 
Flow 426: {32 31} 
Flow 428: {19 33} {33 84} 
Flow 453: {11 34} {34 14} {14 65} 
Flow 471: {11 21} {21 35} {35 30} {30 32} {32 83} 
Flow 500: {12 18} {18 17} {17 68} 
Flow 537: {41 43} {43 9} {9 60} 
Flow 542: {13 17} {17 16} {16 15} {15 66} 
Flow 556: {17 22} {22 21} {21 29} {29 80} 
Flow 631: {15 16} {16 67} 
Flow 633: {16 17} {17 18} {18 69} 
Flow 954: {30 31} {31 82} 
Flow 995: {26 25} {25 28} {28 79} 
Flow 996: {14 29} 
Flow 1037: {24 23} {23 26} {26 77} 
Flow 1059: {28 34} {34 21} {21 27} {27 3} {3 54} 
Flow 1226: {38 39} {39 90} 
Flow 1243: {29 21} {21 11} {11 62} 
Flow 1257: {29 14} {14 34} {34 28} {28 25} {25 76} 
Flow 1330: {31 32} {32 33} {33 19} {19 10} {10 61} 
Flow 1354: {31 30} {30 35} {35 86} 
Flow 1361: {27 36} {36 42} {42 93} 
Flow 1463: {34 11} 
Flow 1585: {37 3} {3 27} {27 41} {41 1} {1 52} 
Flow 1680: {39 38} {38 8} {8 59} 
Flow 1718: {40 20} {20 2} {2 53} 
Flow 1831: {36 27} {27 78} 
Flow 1846: {42 7} {7 9} {9 43} {43 94} 
Flow 1852: {3 4} {4 55} 
Flow 1888: {9 7} {7 20} {20 40} {40 91} 
Flow 1913: {45 27} {27 21} {21 72} 
Flow 1928: {44 45} {45 36} {36 87} 
Time taken running everything: 138 seconds
