networks/zoo_96_1980/zoo_96_1980.sol
<?xml version = "1.0" encoding="UTF-8" standalone="yes"?>
<CPLEXSolution version="1.2">
 <header
   problemName="networks/zoo_96_1980/zoo_96_1980.lp"
   solutionName="incumbent"
   solutionIndex="-1"
   objectiveValue="48"
   solutionTypeValue="3"
   solutionTypeString="primal"
   solutionStatusValue="101"
   solutionStatusString="integer optimal solution"
   solutionMethodString="mip"
   primalFeasible="1"
   dualFeasible="1"
   MIPNodes="1173"
   MIPIterations="139481"
   writeLevel="3"/>
 <quality
   epInt="1.0000000000000001e-05"
   epRHS="9.9999999999999995e-07"
   maxIntInfeas="0"
   maxPrimalInfeas="0"
   maxX="4"
   maxSlack="10"/>
 <variables>
  <variable name="Y(30,30)" index="2639" value="1"/>
  <variable name="Y(39,40)" index="3459" value="1"/>
  <variable name="Y(49,6)" index="4325" value="1"/>
  <variable name="Y(140,9)" index="12518" value="1"/>
  <variable name="Y(168,37)" index="15066" value="1"/>
  <variable name="Y(216,41)" index="19390" value="1"/>
  <variable name="Y(225,5)" index="20164" value="1"/>
  <variable name="Y(290,27)" index="26036" value="1"/>
  <variable name="Y(356,4)" index="31953" value="1"/>
  <variable name="Y(414,19)" index="37188" value="1"/>
  <variable name="Y(428,33)" index="38462" value="1"/>
  <variable name="Y(431,36)" index="38735" value="1"/>
  <variable name="Y(433,38)" index="38917" value="1"/>
  <variable name="Y(441,1)" index="39600" value="1"/>
  <variable name="Y(463,24)" index="41603" value="1"/>
  <variable name="Y(464,25)" index="41694" value="1"/>
  <variable name="Y(496,13)" index="44562" value="1"/>
  <variable name="Y(509,26)" index="45745" value="1"/>
  <variable name="Y(517,34)" index="46473" value="1"/>
  <variable name="Y(540,12)" index="48521" value="1"/>
  <variable name="Y(545,18)" index="48977" value="1"/>
  <variable name="Y(606,35)" index="54484" value="1"/>
  <variable name="Y(631,16)" index="56715" value="1"/>
  <variable name="Y(632,17)" index="56806" value="1"/>
  <variable name="Y(821,30)" index="73829" value="1"/>
  <variable name="Y(830,39)" index="74648" value="1"/>
  <variable name="Y(935,21)" index="84080" value="1"/>
  <variable name="Y(995,28)" index="89487" value="1"/>
  <variable name="Y(1027,15)" index="92354" value="1"/>
  <variable name="Y(1035,23)" index="93082" value="1"/>
  <variable name="Y(1067,11)" index="95950" value="1"/>
  <variable name="Y(1084,14)" index="97483" value="1"/>
  <variable name="Y(1246,14)" index="112063" value="1"/>
  <variable name="Y(1253,21)" index="112700" value="1"/>
  <variable name="Y(1330,10)" index="119619" value="1"/>
  <variable name="Y(1342,22)" index="120711" value="1"/>
  <variable name="Y(1439,31)" index="129450" value="1"/>
  <variable name="Y(1543,3)" index="138782" value="1"/>
  <variable name="Y(1628,45)" index="146474" value="1"/>
  <variable name="Y(1680,8)" index="151117" value="1"/>
  <variable name="Y(1713,42)" index="154121" value="1"/>
  <variable name="Y(1718,2)" index="154531" value="1"/>
  <variable name="Y(1846,43)" index="166092" value="1"/>
  <variable name="Y(1847,44)" index="166183" value="1"/>
  <variable name="Y(1868,20)" index="168049" value="1"/>
  <variable name="Y(1899,7)" index="170826" value="1"/>
  <variable name="Y(1921,29)" index="172828" value="1"/>
  <variable name="Y(1968,32)" index="177061" value="1"/>
  <variable name="X(1,41,39)" index="178238" value="1"/>
  <variable name="X(1,52,441)" index="180620" value="1"/>
  <variable name="X(2,8,433)" index="182592" value="1"/>
  <variable name="X(2,20,39)" index="184178" value="1"/>
  <variable name="X(2,41,216)" index="186335" value="1"/>
  <variable name="X(2,53,1718)" index="189817" value="1"/>
  <variable name="X(3,4,356)" index="190435" value="1"/>
  <variable name="X(3,27,1628)" index="193687" value="1"/>
  <variable name="X(3,37,168)" index="194207" value="1"/>
  <variable name="X(3,54,1543)" index="197562" value="1"/>
  <variable name="X(4,3,168)" index="198167" value="1"/>
  <variable name="X(4,55,356)" index="200335" value="1"/>
  <variable name="X(5,6,49)" index="202008" value="1"/>
  <variable name="X(5,8,216)" index="204155" value="1"/>
  <variable name="X(5,56,225)" index="206144" value="1"/>
  <variable name="X(6,5,225)" index="208124" value="1"/>
  <variable name="X(6,57,49)" index="209928" value="1"/>
  <variable name="X(7,9,1846)" index="213705" value="1"/>
  <variable name="X(7,20,1868)" index="215707" value="1"/>
  <variable name="X(7,42,1713)" index="217532" value="1"/>
  <variable name="X(7,58,1899)" index="219698" value="1"/>
  <variable name="X(8,2,216)" index="219995" value="1"/>
  <variable name="X(8,5,49)" index="221808" value="1"/>
  <variable name="X(8,38,433)" index="224172" value="1"/>
  <variable name="X(8,59,1680)" index="227399" value="1"/>
  <variable name="X(9,7,1868)" index="229567" value="1"/>
  <variable name="X(9,43,1846)" index="231525" value="1"/>
  <variable name="X(9,60,140)" index="231799" value="1"/>
  <variable name="X(10,19,414)" index="234053" value="1"/>
  <variable name="X(10,61,1330)" index="236949" value="1"/>
  <variable name="X(11,21,441)" index="238040" value="1"/>
  <variable name="X(11,34,464)" index="240043" value="1"/>
  <variable name="X(11,62,1067)" index="242626" value="1"/>
  <variable name="X(12,18,496)" index="244035" value="1"/>
  <variable name="X(12,63,540)" index="246059" value="1"/>
  <variable name="X(13,17,540)" index="248039" value="1"/>
  <variable name="X(13,64,496)" index="249975" value="1"/>
  <variable name="X(14,29,1084)" index="252543" value="1"/>
  <variable name="X(14,34,606)" index="254045" value="1"/>
  <variable name="X(14,65,1246)" index="256665" value="1"/>
  <variable name="X(15,16,631)" index="258030" value="1"/>
  <variable name="X(15,66,1027)" index="260406" value="1"/>
  <variable name="X(16,15,1027)" index="262386" value="1"/>
  <variable name="X(16,17,632)" index="263971" value="1"/>
  <variable name="X(16,67,631)" index="265950" value="1"/>
  <variable name="X(17,13,496)" index="267795" value="1"/>
  <variable name="X(17,16,1027)" index="270306" value="1"/>
  <variable name="X(17,18,540)" index="271799" value="1"/>
  <variable name="X(17,22,517)" index="273756" value="1"/>
  <variable name="X(17,68,632)" index="275851" value="1"/>
  <variable name="X(18,12,540)" index="277739" value="1"/>
  <variable name="X(18,17,496)" index="279675" value="1"/>
  <variable name="X(18,69,545)" index="281704" value="1"/>
  <variable name="X(19,10,1330)" index="284469" value="1"/>
  <variable name="X(19,33,428)" index="285547" value="1"/>
  <variable name="X(19,70,414)" index="287513" value="1"/>
  <variable name="X(20,2,1718)" index="290797" value="1"/>
  <variable name="X(20,7,1713)" index="292772" value="1"/>
  <variable name="X(20,40,39)" index="293078" value="1"/>
  <variable name="X(20,71,1868)" index="296887" value="1"/>
  <variable name="X(21,11,935)" index="297934" value="1"/>
  <variable name="X(21,22,1342)" index="300321" value="1"/>
  <variable name="X(21,27,441)" index="301400" value="1"/>
  <variable name="X(21,29,1921)" index="304860" value="1"/>
  <variable name="X(21,34,517)" index="305436" value="1"/>
  <variable name="X(21,35,606)" index="307505" value="1"/>
  <variable name="X(21,72,1253)" index="310132" value="1"/>
  <variable name="X(22,17,1027)" index="311886" value="1"/>
  <variable name="X(22,21,517)" index="313356" value="1"/>
  <variable name="X(22,73,1342)" index="316161" value="1"/>
  <variable name="X(23,24,463)" index="317262" value="1"/>
  <variable name="X(23,26,995)" index="319774" value="1"/>
  <variable name="X(23,74,1035)" index="321794" value="1"/>
  <variable name="X(24,23,1035)" index="323774" value="1"/>
  <variable name="X(24,75,463)" index="325182" value="1"/>
  <variable name="X(25,26,509)" index="327208" value="1"/>
  <variable name="X(25,28,995)" index="329674" value="1"/>
  <variable name="X(25,76,464)" index="331123" value="1"/>
  <variable name="X(26,23,463)" index="333102" value="1"/>
  <variable name="X(26,25,995)" index="335614" value="1"/>
  <variable name="X(26,77,509)" index="337108" value="1"/>
  <variable name="X(27,3,356)" index="338935" value="1"/>
  <variable name="X(27,21,1921)" index="342480" value="1"/>
  <variable name="X(27,36,431)" index="342970" value="1"/>
  <variable name="X(27,41,441)" index="344960" value="1"/>
  <variable name="X(27,45,1628)" index="348127" value="1"/>
  <variable name="X(27,78,290)" index="348769" value="1"/>
  <variable name="X(28,25,464)" index="350923" value="1"/>
  <variable name="X(28,34,1084)" index="353523" value="1"/>
  <variable name="X(28,79,995)" index="355414" value="1"/>
  <variable name="X(29,14,1246)" index="357645" value="1"/>
  <variable name="X(29,21,1253)" index="359632" value="1"/>
  <variable name="X(29,80,1921)" index="362280" value="1"/>
  <variable name="X(30,31,30)" index="362369" value="1"/>
  <variable name="X(30,32,1968)" index="366287" value="1"/>
  <variable name="X(30,35,1342)" index="367641" value="1"/>
  <variable name="X(30,81,821)" index="369100" value="1"/>
  <variable name="X(31,30,1342)" index="371601" value="1"/>
  <variable name="X(31,32,1330)" index="373569" value="1"/>
  <variable name="X(31,82,1439)" index="375658" value="1"/>
  <variable name="X(32,30,821)" index="377020" value="1"/>
  <variable name="X(32,31,1439)" index="379618" value="1"/>
  <variable name="X(32,33,1330)" index="381489" value="1"/>
  <variable name="X(32,83,1968)" index="384107" value="1"/>
  <variable name="X(33,19,1330)" index="385449" value="1"/>
  <variable name="X(33,32,821)" index="386920" value="1"/>
  <variable name="X(33,84,428)" index="388507" value="1"/>
  <variable name="X(34,11,1067)" index="391126" value="1"/>
  <variable name="X(34,14,1084)" index="393123" value="1"/>
  <variable name="X(34,21,606)" index="394625" value="1"/>
  <variable name="X(34,28,464)" index="396463" value="1"/>
  <variable name="X(34,85,517)" index="398496" value="1"/>
  <variable name="X(35,21,1342)" index="401301" value="1"/>
  <variable name="X(35,30,1968)" index="403907" value="1"/>
  <variable name="X(35,86,606)" index="404525" value="1"/>
  <variable name="X(36,27,290)" index="406189" value="1"/>
  <variable name="X(36,42,1899)" index="409778" value="1"/>
  <variable name="X(36,45,1847)" index="411706" value="1"/>
  <variable name="X(36,87,431)" index="412270" value="1"/>
  <variable name="X(37,3,1628)" index="415447" value="1"/>
  <variable name="X(37,88,168)" index="415967" value="1"/>
  <variable name="X(38,8,1680)" index="419459" value="1"/>
  <variable name="X(38,39,830)" index="420589" value="1"/>
  <variable name="X(38,89,433)" index="422172" value="1"/>
  <variable name="X(39,38,1680)" index="425399" value="1"/>
  <variable name="X(39,90,830)" index="426529" value="1"/>
  <variable name="X(40,20,1718)" index="429397" value="1"/>
  <variable name="X(40,91,39)" index="429698" value="1"/>
  <variable name="X(41,1,441)" index="432080" value="1"/>
  <variable name="X(41,2,39)" index="433658" value="1"/>
  <variable name="X(41,27,356)" index="435955" value="1"/>
  <variable name="X(41,43,140)" index="437719" value="1"/>
  <variable name="X(41,92,216)" index="439775" value="1"/>
  <variable name="X(42,7,1899)" index="443438" value="1"/>
  <variable name="X(42,36,1847)" index="445366" value="1"/>
  <variable name="X(42,93,1713)" index="447212" value="1"/>
  <variable name="X(43,9,140)" index="447619" value="1"/>
  <variable name="X(43,41,356)" index="449815" value="1"/>
  <variable name="X(43,94,1846)" index="453285" value="1"/>
  <variable name="X(44,45,1899)" index="455318" value="1"/>
  <variable name="X(44,95,1847)" index="457246" value="1"/>
  <variable name="X(45,27,1921)" index="459300" value="1"/>
  <variable name="X(45,36,1899)" index="461258" value="1"/>
  <variable name="X(45,44,1847)" index="463186" value="1"/>
  <variable name="X(45,96,1628)" index="464947" value="1"/>
  <variable name="C(39,41)" index="465529" value="1"/>
  <variable name="C(39,2)" index="465530" value="2"/>
  <variable name="C(39,20)" index="465531" value="3"/>
  <variable name="C(39,40)" index="465532" value="4"/>
  <variable name="C(49,5)" index="465569" value="1"/>
  <variable name="C(49,6)" index="465570" value="2"/>
  <variable name="C(140,43)" index="466058" value="1"/>
  <variable name="C(140,9)" index="466059" value="2"/>
  <variable name="C(168,3)" index="466239" value="1"/>
  <variable name="C(168,37)" index="466240" value="2"/>
  <variable name="C(216,8)" index="466570" value="1"/>
  <variable name="C(216,2)" index="466571" value="2"/>
  <variable name="C(216,41)" index="466572" value="3"/>
  <variable name="C(225,5)" index="466623" value="1"/>
  <variable name="C(290,27)" index="467124" value="1"/>
  <variable name="C(356,41)" index="467508" value="1"/>
  <variable name="C(356,27)" index="467509" value="2"/>
  <variable name="C(356,3)" index="467510" value="3"/>
  <variable name="C(356,4)" index="467511" value="4"/>
  <variable name="C(414,19)" index="467950" value="1"/>
  <variable name="C(428,33)" index="468064" value="1"/>
  <variable name="C(431,36)" index="468087" value="1"/>
  <variable name="C(433,8)" index="468108" value="1"/>
  <variable name="C(433,38)" index="468109" value="2"/>
  <variable name="C(441,21)" index="468184" value="1"/>
  <variable name="C(441,27)" index="468185" value="2"/>
  <variable name="C(441,41)" index="468186" value="3"/>
  <variable name="C(441,1)" index="468187" value="4"/>
  <variable name="C(463,23)" index="468306" value="1"/>
  <variable name="C(463,24)" index="468307" value="2"/>
  <variable name="C(464,34)" index="468309" value="1"/>
  <variable name="C(464,28)" index="468310" value="2"/>
  <variable name="C(464,25)" index="468311" value="3"/>
  <variable name="C(496,18)" index="468502" value="1"/>
  <variable name="C(496,17)" index="468503" value="2"/>
  <variable name="C(496,13)" index="468504" value="3"/>
  <variable name="C(509,26)" index="468591" value="1"/>
  <variable name="C(517,22)" index="468646" value="1"/>
  <variable name="C(517,21)" index="468647" value="2"/>
  <variable name="C(517,34)" index="468648" value="3"/>
  <variable name="C(540,17)" index="468825" value="1"/>
  <variable name="C(540,18)" index="468826" value="2"/>
  <variable name="C(540,12)" index="468827" value="3"/>
  <variable name="C(606,34)" index="469222" value="1"/>
  <variable name="C(606,21)" index="469223" value="2"/>
  <variable name="C(606,35)" index="469224" value="3"/>
  <variable name="C(631,16)" index="469402" value="1"/>
  <variable name="C(632,17)" index="469405" value="1"/>
  <variable name="C(821,32)" index="470704" value="1"/>
  <variable name="C(821,30)" index="470705" value="2"/>
  <variable name="C(830,39)" index="470766" value="1"/>
  <variable name="C(995,26)" index="471709" value="1"/>
  <variable name="C(995,25)" index="471710" value="2"/>
  <variable name="C(995,28)" index="471711" value="3"/>
  <variable name="C(1027,17)" index="472014" value="1"/>
  <variable name="C(1027,16)" index="472015" value="2"/>
  <variable name="C(1027,15)" index="472016" value="3"/>
  <variable name="C(1035,23)" index="472085" value="1"/>
  <variable name="C(1067,11)" index="472355" value="1"/>
  <variable name="C(1084,34)" index="472447" value="1"/>
  <variable name="C(1084,14)" index="472448" value="2"/>
  <variable name="C(1246,14)" index="473402" value="1"/>
  <variable name="C(1253,21)" index="473437" value="1"/>
  <variable name="C(1330,32)" index="473875" value="1"/>
  <variable name="C(1330,33)" index="473876" value="2"/>
  <variable name="C(1330,19)" index="473877" value="3"/>
  <variable name="C(1330,10)" index="473878" value="4"/>
  <variable name="C(1342,30)" index="473950" value="1"/>
  <variable name="C(1342,35)" index="473951" value="2"/>
  <variable name="C(1342,21)" index="473952" value="3"/>
  <variable name="C(1342,22)" index="473953" value="4"/>
  <variable name="C(1439,31)" index="474607" value="1"/>
  <variable name="C(1628,3)" index="475628" value="1"/>
  <variable name="C(1628,27)" index="475629" value="2"/>
  <variable name="C(1628,45)" index="475630" value="3"/>
  <variable name="C(1680,38)" index="475983" value="1"/>
  <variable name="C(1680,8)" index="475984" value="2"/>
  <variable name="C(1713,7)" index="476273" value="1"/>
  <variable name="C(1713,42)" index="476274" value="2"/>
  <variable name="C(1718,20)" index="476302" value="1"/>
  <variable name="C(1718,2)" index="476303" value="2"/>
  <variable name="C(1846,9)" index="477059" value="1"/>
  <variable name="C(1846,43)" index="477060" value="2"/>
  <variable name="C(1847,36)" index="477062" value="1"/>
  <variable name="C(1847,45)" index="477063" value="2"/>
  <variable name="C(1847,44)" index="477064" value="3"/>
  <variable name="C(1868,7)" index="477178" value="1"/>
  <variable name="C(1868,20)" index="477179" value="2"/>
  <variable name="C(1899,45)" index="477350" value="1"/>
  <variable name="C(1899,36)" index="477351" value="2"/>
  <variable name="C(1899,42)" index="477352" value="3"/>
  <variable name="C(1899,7)" index="477353" value="4"/>
  <variable name="C(1921,27)" index="477499" value="1"/>
  <variable name="C(1921,21)" index="477500" value="2"/>
  <variable name="C(1921,29)" index="477501" value="3"/>
  <variable name="C(1968,30)" index="477758" value="1"/>
  <variable name="C(1968,32)" index="477759" value="2"/>
 </variables>
</CPLEXSolution>
